\ Model mip1
\ LP format - for model browsing. Use MPS format to capture full model detail.
Minimize
  0.4079493182086281 f(x_0) + 0.2998039402874787 f(x_1)
   + 0.4510034211734426 f(x_2) + 0.3070009762406196 f(x_3)
   + 0.5297712652478126 f(x_4) + 0.7469401850128443 f(x_5)
   + 0.3499792744473497 f(x_6) + 0.728054062351943 f(x_7)
   + 0.4093698656235304 f(x_8) + 0.4585774200444387 f(x_9)
   + 0.2822005447378589 f(x_10) + 0.708246898478938 f(x_11)
   + 0.2607025313445951 f(x_12) + 0.4013476636665201 f(x_13)
   + 0.3865769315890716 f(x_14) + 0.6900218422780718 f(x_15)
   + 0.4252098289911724 f(x_16) + 0.7070494498175384 f(x_17)
   + 0.7002927933845948 f(x_18) + 0.3754122129989035 f(x_19)
   + 0.5952466696457454 f(x_20) + 0.6639365756201208 f(x_21)
   + 0.689054527164898 f(x_22) + 0.2528635170374595 f(x_23)
   + 0.7337274402578888 f(x_24) + 0.607538886128661 f(x_25)
   + 0.3139718399924583 f(x_26) + 0.4357956227910227 f(x_27)
   + 0.4266494573318805 f(x_28) + 0.5428467276526713 f(x_29)
   + 0.4156321946373631 f(x_30) + 0.6803174929705977 f(x_31)
   + 0.5900475695986312 f(x_32) + 0.6051109102051979 f(x_33)
   + 0.583034604661484 f(x_34) + 0.4504797197240752 f(x_35)
   + 0.3682112123453724 f(x_36) + 0.5781527857701072 f(x_37)
   + 0.4370419539001396 f(x_38) + 0.6720387322165127 f(x_39)
   + 0.4467530528842847 f(x_40) + 0.534244852131615 f(x_41)
   + 0.3615217664120317 f(x_42) + 0.3757480914101424 f(x_43)
   + 0.4581595246139288 f(x_44) + 0.4215492630266869 f(x_45)
   + 0.5809242605983462 f(x_46) + 0.4516900843804965 f(x_47)
   + 0.3064901697614231 f(x_48) + 0.4808280044209746 f(x_49)
   + 0.525977553799396 f(x_50) + 0.2753345727983926 f(x_51)
   + 0.3676341115443947 f(x_52) + 0.7181383136304571 f(x_53)
   + 0.5045236202375026 f(x_54) + 0.7336940535075804 f(x_55)
   + 0.5014363958457404 f(x_56) + 0.5894837060507787 f(x_57)
   + 0.5843841678591235 f(x_58) + 0.4295393237041519 f(x_59)
   + 0.7424562052419619 f(x_60) + 0.4234916013560623 f(x_61)
   + 0.7154660364537628 f(x_62) + 0.3884802493887562 f(x_63)
   + 0.3936092784737301 f(x_64) + 0.6971149599868822 f(x_65)
   + 0.7318074307019502 f(x_66) + 0.4421516814722973 f(x_67)
   + 0.3671689088824917 f(x_68) + 0.5731459131311079 f(x_69)
   + 0.3402571974252221 f(x_70) + 0.4954935519805254 f(x_71)
   + 0.5513124153827822 f(x_72) + 0.252224642693868 f(x_73)
   + 0.3340617904510779 f(x_74) + 0.5700415401887275 f(x_75)
   + 0.540083894405107 f(x_76) + 0.5809501740925314 f(x_77)
   + 0.4308309793565965 f(x_78) + 0.4869637828670334 f(x_79)
   + 0.3771808967062471 f(x_80) + 0.5489948058345265 f(x_81)
   + 0.7421544825808001 f(x_82) + 0.7325713913303014 f(x_83)
   + 0.7045985096846756 f(x_84) + 0.4070706713772163 f(x_85)
   + 0.4900465591180038 f(x_86) + 0.3643344206694737 f(x_87)
   + 0.5001275290181733 f(x_88) + 0.6666001098848633 f(x_89)
   + 0.3163829990999271 f(x_90) + 0.5556859141021278 f(x_91)
   + 0.2819229249471184 f(x_92) + 0.5867819716818153 f(x_93)
   + 0.5947346085886878 f(x_94) + 0.3526708436013444 f(x_95)
   + 0.7188666708408108 f(x_96) + 0.4199085265619734 f(x_97)
   + 0.6989254797397357 f(x_98) + 0.4917169373398215 f(x_99)
Subject To
 constr_x_0_b=1: x_0 - 5.0001 x_0>1 >= -4
 constr_x_0_b=0: x_0 - 5.0001 x_0>1 <= 1
 constr_x_1_b=1: x_1 - 5.0001 x_1>1 >= -4
 constr_x_1_b=0: x_1 - 5.0001 x_1>1 <= 1
 constr_x_2_b=1: x_2 - 5.0001 x_2>1 >= -4
 constr_x_2_b=0: x_2 - 5.0001 x_2>1 <= 1
 constr_x_3_b=1: x_3 - 5.0001 x_3>1 >= -4
 constr_x_3_b=0: x_3 - 5.0001 x_3>1 <= 1
 constr_x_4_b=1: x_4 - 5.0001 x_4>1 >= -4
 constr_x_4_b=0: x_4 - 5.0001 x_4>1 <= 1
 constr_x_5_b=1: x_5 - 5.0001 x_5>1 >= -4
 constr_x_5_b=0: x_5 - 5.0001 x_5>1 <= 1
 constr_x_6_b=1: x_6 - 5.0001 x_6>1 >= -4
 constr_x_6_b=0: x_6 - 5.0001 x_6>1 <= 1
 constr_x_7_b=1: x_7 - 5.0001 x_7>1 >= -4
 constr_x_7_b=0: x_7 - 5.0001 x_7>1 <= 1
 constr_x_8_b=1: x_8 - 5.0001 x_8>1 >= -4
 constr_x_8_b=0: x_8 - 5.0001 x_8>1 <= 1
 constr_x_9_b=1: x_9 - 5.0001 x_9>1 >= -4
 constr_x_9_b=0: x_9 - 5.0001 x_9>1 <= 1
 constr_x_10_b=1: x_10 - 5.0001 x_10>1 >= -4
 constr_x_10_b=0: x_10 - 5.0001 x_10>1 <= 1
 constr_x_11_b=1: x_11 - 5.0001 x_11>1 >= -4
 constr_x_11_b=0: x_11 - 5.0001 x_11>1 <= 1
 constr_x_12_b=1: x_12 - 5.0001 x_12>1 >= -4
 constr_x_12_b=0: x_12 - 5.0001 x_12>1 <= 1
 constr_x_13_b=1: x_13 - 5.0001 x_13>1 >= -4
 constr_x_13_b=0: x_13 - 5.0001 x_13>1 <= 1
 constr_x_14_b=1: x_14 - 5.0001 x_14>1 >= -4
 constr_x_14_b=0: x_14 - 5.0001 x_14>1 <= 1
 constr_x_15_b=1: x_15 - 5.0001 x_15>1 >= -4
 constr_x_15_b=0: x_15 - 5.0001 x_15>1 <= 1
 constr_x_16_b=1: x_16 - 5.0001 x_16>1 >= -4
 constr_x_16_b=0: x_16 - 5.0001 x_16>1 <= 1
 constr_x_17_b=1: x_17 - 5.0001 x_17>1 >= -4
 constr_x_17_b=0: x_17 - 5.0001 x_17>1 <= 1
 constr_x_18_b=1: x_18 - 5.0001 x_18>1 >= -4
 constr_x_18_b=0: x_18 - 5.0001 x_18>1 <= 1
 constr_x_19_b=1: x_19 - 5.0001 x_19>1 >= -4
 constr_x_19_b=0: x_19 - 5.0001 x_19>1 <= 1
 constr_x_20_b=1: x_20 - 5.0001 x_20>1 >= -4
 constr_x_20_b=0: x_20 - 5.0001 x_20>1 <= 1
 constr_x_21_b=1: x_21 - 5.0001 x_21>1 >= -4
 constr_x_21_b=0: x_21 - 5.0001 x_21>1 <= 1
 constr_x_22_b=1: x_22 - 5.0001 x_22>1 >= -4
 constr_x_22_b=0: x_22 - 5.0001 x_22>1 <= 1
 constr_x_23_b=1: x_23 - 5.0001 x_23>1 >= -4
 constr_x_23_b=0: x_23 - 5.0001 x_23>1 <= 1
 constr_x_24_b=1: x_24 - 5.0001 x_24>1 >= -4
 constr_x_24_b=0: x_24 - 5.0001 x_24>1 <= 1
 constr_x_25_b=1: x_25 - 5.0001 x_25>1 >= -4
 constr_x_25_b=0: x_25 - 5.0001 x_25>1 <= 1
 constr_x_26_b=1: x_26 - 5.0001 x_26>1 >= -4
 constr_x_26_b=0: x_26 - 5.0001 x_26>1 <= 1
 constr_x_27_b=1: x_27 - 5.0001 x_27>1 >= -4
 constr_x_27_b=0: x_27 - 5.0001 x_27>1 <= 1
 constr_x_28_b=1: x_28 - 5.0001 x_28>1 >= -4
 constr_x_28_b=0: x_28 - 5.0001 x_28>1 <= 1
 constr_x_29_b=1: x_29 - 5.0001 x_29>1 >= -4
 constr_x_29_b=0: x_29 - 5.0001 x_29>1 <= 1
 constr_x_30_b=1: x_30 - 5.0001 x_30>1 >= -4
 constr_x_30_b=0: x_30 - 5.0001 x_30>1 <= 1
 constr_x_31_b=1: x_31 - 5.0001 x_31>1 >= -4
 constr_x_31_b=0: x_31 - 5.0001 x_31>1 <= 1
 constr_x_32_b=1: x_32 - 5.0001 x_32>1 >= -4
 constr_x_32_b=0: x_32 - 5.0001 x_32>1 <= 1
 constr_x_33_b=1: x_33 - 5.0001 x_33>1 >= -4
 constr_x_33_b=0: x_33 - 5.0001 x_33>1 <= 1
 constr_x_34_b=1: x_34 - 5.0001 x_34>1 >= -4
 constr_x_34_b=0: x_34 - 5.0001 x_34>1 <= 1
 constr_x_35_b=1: x_35 - 5.0001 x_35>1 >= -4
 constr_x_35_b=0: x_35 - 5.0001 x_35>1 <= 1
 constr_x_36_b=1: x_36 - 5.0001 x_36>1 >= -4
 constr_x_36_b=0: x_36 - 5.0001 x_36>1 <= 1
 constr_x_37_b=1: x_37 - 5.0001 x_37>1 >= -4
 constr_x_37_b=0: x_37 - 5.0001 x_37>1 <= 1
 constr_x_38_b=1: x_38 - 5.0001 x_38>1 >= -4
 constr_x_38_b=0: x_38 - 5.0001 x_38>1 <= 1
 constr_x_39_b=1: x_39 - 5.0001 x_39>1 >= -4
 constr_x_39_b=0: x_39 - 5.0001 x_39>1 <= 1
 constr_x_40_b=1: x_40 - 5.0001 x_40>1 >= -4
 constr_x_40_b=0: x_40 - 5.0001 x_40>1 <= 1
 constr_x_41_b=1: x_41 - 5.0001 x_41>1 >= -4
 constr_x_41_b=0: x_41 - 5.0001 x_41>1 <= 1
 constr_x_42_b=1: x_42 - 5.0001 x_42>1 >= -4
 constr_x_42_b=0: x_42 - 5.0001 x_42>1 <= 1
 constr_x_43_b=1: x_43 - 5.0001 x_43>1 >= -4
 constr_x_43_b=0: x_43 - 5.0001 x_43>1 <= 1
 constr_x_44_b=1: x_44 - 5.0001 x_44>1 >= -4
 constr_x_44_b=0: x_44 - 5.0001 x_44>1 <= 1
 constr_x_45_b=1: x_45 - 5.0001 x_45>1 >= -4
 constr_x_45_b=0: x_45 - 5.0001 x_45>1 <= 1
 constr_x_46_b=1: x_46 - 5.0001 x_46>1 >= -4
 constr_x_46_b=0: x_46 - 5.0001 x_46>1 <= 1
 constr_x_47_b=1: x_47 - 5.0001 x_47>1 >= -4
 constr_x_47_b=0: x_47 - 5.0001 x_47>1 <= 1
 constr_x_48_b=1: x_48 - 5.0001 x_48>1 >= -4
 constr_x_48_b=0: x_48 - 5.0001 x_48>1 <= 1
 constr_x_49_b=1: x_49 - 5.0001 x_49>1 >= -4
 constr_x_49_b=0: x_49 - 5.0001 x_49>1 <= 1
 constr_x_50_b=1: x_50 - 5.0001 x_50>1 >= -4
 constr_x_50_b=0: x_50 - 5.0001 x_50>1 <= 1
 constr_x_51_b=1: x_51 - 5.0001 x_51>1 >= -4
 constr_x_51_b=0: x_51 - 5.0001 x_51>1 <= 1
 constr_x_52_b=1: x_52 - 5.0001 x_52>1 >= -4
 constr_x_52_b=0: x_52 - 5.0001 x_52>1 <= 1
 constr_x_53_b=1: x_53 - 5.0001 x_53>1 >= -4
 constr_x_53_b=0: x_53 - 5.0001 x_53>1 <= 1
 constr_x_54_b=1: x_54 - 5.0001 x_54>1 >= -4
 constr_x_54_b=0: x_54 - 5.0001 x_54>1 <= 1
 constr_x_55_b=1: x_55 - 5.0001 x_55>1 >= -4
 constr_x_55_b=0: x_55 - 5.0001 x_55>1 <= 1
 constr_x_56_b=1: x_56 - 5.0001 x_56>1 >= -4
 constr_x_56_b=0: x_56 - 5.0001 x_56>1 <= 1
 constr_x_57_b=1: x_57 - 5.0001 x_57>1 >= -4
 constr_x_57_b=0: x_57 - 5.0001 x_57>1 <= 1
 constr_x_58_b=1: x_58 - 5.0001 x_58>1 >= -4
 constr_x_58_b=0: x_58 - 5.0001 x_58>1 <= 1
 constr_x_59_b=1: x_59 - 5.0001 x_59>1 >= -4
 constr_x_59_b=0: x_59 - 5.0001 x_59>1 <= 1
 constr_x_60_b=1: x_60 - 5.0001 x_60>1 >= -4
 constr_x_60_b=0: x_60 - 5.0001 x_60>1 <= 1
 constr_x_61_b=1: x_61 - 5.0001 x_61>1 >= -4
 constr_x_61_b=0: x_61 - 5.0001 x_61>1 <= 1
 constr_x_62_b=1: x_62 - 5.0001 x_62>1 >= -4
 constr_x_62_b=0: x_62 - 5.0001 x_62>1 <= 1
 constr_x_63_b=1: x_63 - 5.0001 x_63>1 >= -4
 constr_x_63_b=0: x_63 - 5.0001 x_63>1 <= 1
 constr_x_64_b=1: x_64 - 5.0001 x_64>1 >= -4
 constr_x_64_b=0: x_64 - 5.0001 x_64>1 <= 1
 constr_x_65_b=1: x_65 - 5.0001 x_65>1 >= -4
 constr_x_65_b=0: x_65 - 5.0001 x_65>1 <= 1
 constr_x_66_b=1: x_66 - 5.0001 x_66>1 >= -4
 constr_x_66_b=0: x_66 - 5.0001 x_66>1 <= 1
 constr_x_67_b=1: x_67 - 5.0001 x_67>1 >= -4
 constr_x_67_b=0: x_67 - 5.0001 x_67>1 <= 1
 constr_x_68_b=1: x_68 - 5.0001 x_68>1 >= -4
 constr_x_68_b=0: x_68 - 5.0001 x_68>1 <= 1
 constr_x_69_b=1: x_69 - 5.0001 x_69>1 >= -4
 constr_x_69_b=0: x_69 - 5.0001 x_69>1 <= 1
 constr_x_70_b=1: x_70 - 5.0001 x_70>1 >= -4
 constr_x_70_b=0: x_70 - 5.0001 x_70>1 <= 1
 constr_x_71_b=1: x_71 - 5.0001 x_71>1 >= -4
 constr_x_71_b=0: x_71 - 5.0001 x_71>1 <= 1
 constr_x_72_b=1: x_72 - 5.0001 x_72>1 >= -4
 constr_x_72_b=0: x_72 - 5.0001 x_72>1 <= 1
 constr_x_73_b=1: x_73 - 5.0001 x_73>1 >= -4
 constr_x_73_b=0: x_73 - 5.0001 x_73>1 <= 1
 constr_x_74_b=1: x_74 - 5.0001 x_74>1 >= -4
 constr_x_74_b=0: x_74 - 5.0001 x_74>1 <= 1
 constr_x_75_b=1: x_75 - 5.0001 x_75>1 >= -4
 constr_x_75_b=0: x_75 - 5.0001 x_75>1 <= 1
 constr_x_76_b=1: x_76 - 5.0001 x_76>1 >= -4
 constr_x_76_b=0: x_76 - 5.0001 x_76>1 <= 1
 constr_x_77_b=1: x_77 - 5.0001 x_77>1 >= -4
 constr_x_77_b=0: x_77 - 5.0001 x_77>1 <= 1
 constr_x_78_b=1: x_78 - 5.0001 x_78>1 >= -4
 constr_x_78_b=0: x_78 - 5.0001 x_78>1 <= 1
 constr_x_79_b=1: x_79 - 5.0001 x_79>1 >= -4
 constr_x_79_b=0: x_79 - 5.0001 x_79>1 <= 1
 constr_x_80_b=1: x_80 - 5.0001 x_80>1 >= -4
 constr_x_80_b=0: x_80 - 5.0001 x_80>1 <= 1
 constr_x_81_b=1: x_81 - 5.0001 x_81>1 >= -4
 constr_x_81_b=0: x_81 - 5.0001 x_81>1 <= 1
 constr_x_82_b=1: x_82 - 5.0001 x_82>1 >= -4
 constr_x_82_b=0: x_82 - 5.0001 x_82>1 <= 1
 constr_x_83_b=1: x_83 - 5.0001 x_83>1 >= -4
 constr_x_83_b=0: x_83 - 5.0001 x_83>1 <= 1
 constr_x_84_b=1: x_84 - 5.0001 x_84>1 >= -4
 constr_x_84_b=0: x_84 - 5.0001 x_84>1 <= 1
 constr_x_85_b=1: x_85 - 5.0001 x_85>1 >= -4
 constr_x_85_b=0: x_85 - 5.0001 x_85>1 <= 1
 constr_x_86_b=1: x_86 - 5.0001 x_86>1 >= -4
 constr_x_86_b=0: x_86 - 5.0001 x_86>1 <= 1
 constr_x_87_b=1: x_87 - 5.0001 x_87>1 >= -4
 constr_x_87_b=0: x_87 - 5.0001 x_87>1 <= 1
 constr_x_88_b=1: x_88 - 5.0001 x_88>1 >= -4
 constr_x_88_b=0: x_88 - 5.0001 x_88>1 <= 1
 constr_x_89_b=1: x_89 - 5.0001 x_89>1 >= -4
 constr_x_89_b=0: x_89 - 5.0001 x_89>1 <= 1
 constr_x_90_b=1: x_90 - 5.0001 x_90>1 >= -4
 constr_x_90_b=0: x_90 - 5.0001 x_90>1 <= 1
 constr_x_91_b=1: x_91 - 5.0001 x_91>1 >= -4
 constr_x_91_b=0: x_91 - 5.0001 x_91>1 <= 1
 constr_x_92_b=1: x_92 - 5.0001 x_92>1 >= -4
 constr_x_92_b=0: x_92 - 5.0001 x_92>1 <= 1
 constr_x_93_b=1: x_93 - 5.0001 x_93>1 >= -4
 constr_x_93_b=0: x_93 - 5.0001 x_93>1 <= 1
 constr_x_94_b=1: x_94 - 5.0001 x_94>1 >= -4
 constr_x_94_b=0: x_94 - 5.0001 x_94>1 <= 1
 constr_x_95_b=1: x_95 - 5.0001 x_95>1 >= -4
 constr_x_95_b=0: x_95 - 5.0001 x_95>1 <= 1
 constr_x_96_b=1: x_96 - 5.0001 x_96>1 >= -4
 constr_x_96_b=0: x_96 - 5.0001 x_96>1 <= 1
 constr_x_97_b=1: x_97 - 5.0001 x_97>1 >= -4
 constr_x_97_b=0: x_97 - 5.0001 x_97>1 <= 1
 constr_x_98_b=1: x_98 - 5.0001 x_98>1 >= -4
 constr_x_98_b=0: x_98 - 5.0001 x_98>1 <= 1
 constr_x_99_b=1: x_99 - 5.0001 x_99>1 >= -4
 constr_x_99_b=0: x_99 - 5.0001 x_99>1 <= 1
 R200: x_0 + x_1 + x_2 + x_3 + x_4 + x_5 + x_6 + x_7 + x_8 + x_9 + x_10
   + x_11 + x_12 + x_13 + x_14 + x_15 + x_16 + x_17 + x_18 + x_19 + x_20
   + x_21 + x_22 + x_23 + x_24 + x_25 + x_26 + x_27 + x_28 + x_29 + x_30
   + x_31 + x_32 + x_33 + x_34 + x_35 + x_36 + x_37 + x_38 + x_39 + x_40
   + x_41 + x_42 + x_43 + x_44 + x_45 + x_46 + x_47 + x_48 + x_49 + x_50
   + x_51 + x_52 + x_53 + x_54 + x_55 + x_56 + x_57 + x_58 + x_59 + x_60
   + x_61 + x_62 + x_63 + x_64 + x_65 + x_66 + x_67 + x_68 + x_69 + x_70
   + x_71 + x_72 + x_73 + x_74 + x_75 + x_76 + x_77 + x_78 + x_79 + x_80
   + x_81 + x_82 + x_83 + x_84 + x_85 + x_86 + x_87 + x_88 + x_89 + x_90
   + x_91 + x_92 + x_93 + x_94 + x_95 + x_96 + x_97 + x_98 + x_99 = 5
 constr_f(x_0)_b=1: x_0>1 = 1 -> f(x_0) = 0
 constr_f(x_0)_b=0: x_0>1 = 0 -> - x_0 + f(x_0) = 0
 constr_f(x_1)_b=1: x_1>1 = 1 -> f(x_1) = 0
 constr_f(x_1)_b=0: x_1>1 = 0 -> - x_1 + f(x_1) = 0
 constr_f(x_2)_b=1: x_2>1 = 1 -> f(x_2) = 0
 constr_f(x_2)_b=0: x_2>1 = 0 -> - x_2 + f(x_2) = 0
 constr_f(x_3)_b=1: x_3>1 = 1 -> f(x_3) = 0
 constr_f(x_3)_b=0: x_3>1 = 0 -> - x_3 + f(x_3) = 0
 constr_f(x_4)_b=1: x_4>1 = 1 -> f(x_4) = 0
 constr_f(x_4)_b=0: x_4>1 = 0 -> - x_4 + f(x_4) = 0
 constr_f(x_5)_b=1: x_5>1 = 1 -> f(x_5) = 0
 constr_f(x_5)_b=0: x_5>1 = 0 -> - x_5 + f(x_5) = 0
 constr_f(x_6)_b=1: x_6>1 = 1 -> f(x_6) = 0
 constr_f(x_6)_b=0: x_6>1 = 0 -> - x_6 + f(x_6) = 0
 constr_f(x_7)_b=1: x_7>1 = 1 -> f(x_7) = 0
 constr_f(x_7)_b=0: x_7>1 = 0 -> - x_7 + f(x_7) = 0
 constr_f(x_8)_b=1: x_8>1 = 1 -> f(x_8) = 0
 constr_f(x_8)_b=0: x_8>1 = 0 -> - x_8 + f(x_8) = 0
 constr_f(x_9)_b=1: x_9>1 = 1 -> f(x_9) = 0
 constr_f(x_9)_b=0: x_9>1 = 0 -> - x_9 + f(x_9) = 0
 constr_f(x_10)_b=1: x_10>1 = 1 -> f(x_10) = 0
 constr_f(x_10)_b=0: x_10>1 = 0 -> - x_10 + f(x_10) = 0
 constr_f(x_11)_b=1: x_11>1 = 1 -> f(x_11) = 0
 constr_f(x_11)_b=0: x_11>1 = 0 -> - x_11 + f(x_11) = 0
 constr_f(x_12)_b=1: x_12>1 = 1 -> f(x_12) = 0
 constr_f(x_12)_b=0: x_12>1 = 0 -> - x_12 + f(x_12) = 0
 constr_f(x_13)_b=1: x_13>1 = 1 -> f(x_13) = 0
 constr_f(x_13)_b=0: x_13>1 = 0 -> - x_13 + f(x_13) = 0
 constr_f(x_14)_b=1: x_14>1 = 1 -> f(x_14) = 0
 constr_f(x_14)_b=0: x_14>1 = 0 -> - x_14 + f(x_14) = 0
 constr_f(x_15)_b=1: x_15>1 = 1 -> f(x_15) = 0
 constr_f(x_15)_b=0: x_15>1 = 0 -> - x_15 + f(x_15) = 0
 constr_f(x_16)_b=1: x_16>1 = 1 -> f(x_16) = 0
 constr_f(x_16)_b=0: x_16>1 = 0 -> - x_16 + f(x_16) = 0
 constr_f(x_17)_b=1: x_17>1 = 1 -> f(x_17) = 0
 constr_f(x_17)_b=0: x_17>1 = 0 -> - x_17 + f(x_17) = 0
 constr_f(x_18)_b=1: x_18>1 = 1 -> f(x_18) = 0
 constr_f(x_18)_b=0: x_18>1 = 0 -> - x_18 + f(x_18) = 0
 constr_f(x_19)_b=1: x_19>1 = 1 -> f(x_19) = 0
 constr_f(x_19)_b=0: x_19>1 = 0 -> - x_19 + f(x_19) = 0
 constr_f(x_20)_b=1: x_20>1 = 1 -> f(x_20) = 0
 constr_f(x_20)_b=0: x_20>1 = 0 -> - x_20 + f(x_20) = 0
 constr_f(x_21)_b=1: x_21>1 = 1 -> f(x_21) = 0
 constr_f(x_21)_b=0: x_21>1 = 0 -> - x_21 + f(x_21) = 0
 constr_f(x_22)_b=1: x_22>1 = 1 -> f(x_22) = 0
 constr_f(x_22)_b=0: x_22>1 = 0 -> - x_22 + f(x_22) = 0
 constr_f(x_23)_b=1: x_23>1 = 1 -> f(x_23) = 0
 constr_f(x_23)_b=0: x_23>1 = 0 -> - x_23 + f(x_23) = 0
 constr_f(x_24)_b=1: x_24>1 = 1 -> f(x_24) = 0
 constr_f(x_24)_b=0: x_24>1 = 0 -> - x_24 + f(x_24) = 0
 constr_f(x_25)_b=1: x_25>1 = 1 -> f(x_25) = 0
 constr_f(x_25)_b=0: x_25>1 = 0 -> - x_25 + f(x_25) = 0
 constr_f(x_26)_b=1: x_26>1 = 1 -> f(x_26) = 0
 constr_f(x_26)_b=0: x_26>1 = 0 -> - x_26 + f(x_26) = 0
 constr_f(x_27)_b=1: x_27>1 = 1 -> f(x_27) = 0
 constr_f(x_27)_b=0: x_27>1 = 0 -> - x_27 + f(x_27) = 0
 constr_f(x_28)_b=1: x_28>1 = 1 -> f(x_28) = 0
 constr_f(x_28)_b=0: x_28>1 = 0 -> - x_28 + f(x_28) = 0
 constr_f(x_29)_b=1: x_29>1 = 1 -> f(x_29) = 0
 constr_f(x_29)_b=0: x_29>1 = 0 -> - x_29 + f(x_29) = 0
 constr_f(x_30)_b=1: x_30>1 = 1 -> f(x_30) = 0
 constr_f(x_30)_b=0: x_30>1 = 0 -> - x_30 + f(x_30) = 0
 constr_f(x_31)_b=1: x_31>1 = 1 -> f(x_31) = 0
 constr_f(x_31)_b=0: x_31>1 = 0 -> - x_31 + f(x_31) = 0
 constr_f(x_32)_b=1: x_32>1 = 1 -> f(x_32) = 0
 constr_f(x_32)_b=0: x_32>1 = 0 -> - x_32 + f(x_32) = 0
 constr_f(x_33)_b=1: x_33>1 = 1 -> f(x_33) = 0
 constr_f(x_33)_b=0: x_33>1 = 0 -> - x_33 + f(x_33) = 0
 constr_f(x_34)_b=1: x_34>1 = 1 -> f(x_34) = 0
 constr_f(x_34)_b=0: x_34>1 = 0 -> - x_34 + f(x_34) = 0
 constr_f(x_35)_b=1: x_35>1 = 1 -> f(x_35) = 0
 constr_f(x_35)_b=0: x_35>1 = 0 -> - x_35 + f(x_35) = 0
 constr_f(x_36)_b=1: x_36>1 = 1 -> f(x_36) = 0
 constr_f(x_36)_b=0: x_36>1 = 0 -> - x_36 + f(x_36) = 0
 constr_f(x_37)_b=1: x_37>1 = 1 -> f(x_37) = 0
 constr_f(x_37)_b=0: x_37>1 = 0 -> - x_37 + f(x_37) = 0
 constr_f(x_38)_b=1: x_38>1 = 1 -> f(x_38) = 0
 constr_f(x_38)_b=0: x_38>1 = 0 -> - x_38 + f(x_38) = 0
 constr_f(x_39)_b=1: x_39>1 = 1 -> f(x_39) = 0
 constr_f(x_39)_b=0: x_39>1 = 0 -> - x_39 + f(x_39) = 0
 constr_f(x_40)_b=1: x_40>1 = 1 -> f(x_40) = 0
 constr_f(x_40)_b=0: x_40>1 = 0 -> - x_40 + f(x_40) = 0
 constr_f(x_41)_b=1: x_41>1 = 1 -> f(x_41) = 0
 constr_f(x_41)_b=0: x_41>1 = 0 -> - x_41 + f(x_41) = 0
 constr_f(x_42)_b=1: x_42>1 = 1 -> f(x_42) = 0
 constr_f(x_42)_b=0: x_42>1 = 0 -> - x_42 + f(x_42) = 0
 constr_f(x_43)_b=1: x_43>1 = 1 -> f(x_43) = 0
 constr_f(x_43)_b=0: x_43>1 = 0 -> - x_43 + f(x_43) = 0
 constr_f(x_44)_b=1: x_44>1 = 1 -> f(x_44) = 0
 constr_f(x_44)_b=0: x_44>1 = 0 -> - x_44 + f(x_44) = 0
 constr_f(x_45)_b=1: x_45>1 = 1 -> f(x_45) = 0
 constr_f(x_45)_b=0: x_45>1 = 0 -> - x_45 + f(x_45) = 0
 constr_f(x_46)_b=1: x_46>1 = 1 -> f(x_46) = 0
 constr_f(x_46)_b=0: x_46>1 = 0 -> - x_46 + f(x_46) = 0
 constr_f(x_47)_b=1: x_47>1 = 1 -> f(x_47) = 0
 constr_f(x_47)_b=0: x_47>1 = 0 -> - x_47 + f(x_47) = 0
 constr_f(x_48)_b=1: x_48>1 = 1 -> f(x_48) = 0
 constr_f(x_48)_b=0: x_48>1 = 0 -> - x_48 + f(x_48) = 0
 constr_f(x_49)_b=1: x_49>1 = 1 -> f(x_49) = 0
 constr_f(x_49)_b=0: x_49>1 = 0 -> - x_49 + f(x_49) = 0
 constr_f(x_50)_b=1: x_50>1 = 1 -> f(x_50) = 0
 constr_f(x_50)_b=0: x_50>1 = 0 -> - x_50 + f(x_50) = 0
 constr_f(x_51)_b=1: x_51>1 = 1 -> f(x_51) = 0
 constr_f(x_51)_b=0: x_51>1 = 0 -> - x_51 + f(x_51) = 0
 constr_f(x_52)_b=1: x_52>1 = 1 -> f(x_52) = 0
 constr_f(x_52)_b=0: x_52>1 = 0 -> - x_52 + f(x_52) = 0
 constr_f(x_53)_b=1: x_53>1 = 1 -> f(x_53) = 0
 constr_f(x_53)_b=0: x_53>1 = 0 -> - x_53 + f(x_53) = 0
 constr_f(x_54)_b=1: x_54>1 = 1 -> f(x_54) = 0
 constr_f(x_54)_b=0: x_54>1 = 0 -> - x_54 + f(x_54) = 0
 constr_f(x_55)_b=1: x_55>1 = 1 -> f(x_55) = 0
 constr_f(x_55)_b=0: x_55>1 = 0 -> - x_55 + f(x_55) = 0
 constr_f(x_56)_b=1: x_56>1 = 1 -> f(x_56) = 0
 constr_f(x_56)_b=0: x_56>1 = 0 -> - x_56 + f(x_56) = 0
 constr_f(x_57)_b=1: x_57>1 = 1 -> f(x_57) = 0
 constr_f(x_57)_b=0: x_57>1 = 0 -> - x_57 + f(x_57) = 0
 constr_f(x_58)_b=1: x_58>1 = 1 -> f(x_58) = 0
 constr_f(x_58)_b=0: x_58>1 = 0 -> - x_58 + f(x_58) = 0
 constr_f(x_59)_b=1: x_59>1 = 1 -> f(x_59) = 0
 constr_f(x_59)_b=0: x_59>1 = 0 -> - x_59 + f(x_59) = 0
 constr_f(x_60)_b=1: x_60>1 = 1 -> f(x_60) = 0
 constr_f(x_60)_b=0: x_60>1 = 0 -> - x_60 + f(x_60) = 0
 constr_f(x_61)_b=1: x_61>1 = 1 -> f(x_61) = 0
 constr_f(x_61)_b=0: x_61>1 = 0 -> - x_61 + f(x_61) = 0
 constr_f(x_62)_b=1: x_62>1 = 1 -> f(x_62) = 0
 constr_f(x_62)_b=0: x_62>1 = 0 -> - x_62 + f(x_62) = 0
 constr_f(x_63)_b=1: x_63>1 = 1 -> f(x_63) = 0
 constr_f(x_63)_b=0: x_63>1 = 0 -> - x_63 + f(x_63) = 0
 constr_f(x_64)_b=1: x_64>1 = 1 -> f(x_64) = 0
 constr_f(x_64)_b=0: x_64>1 = 0 -> - x_64 + f(x_64) = 0
 constr_f(x_65)_b=1: x_65>1 = 1 -> f(x_65) = 0
 constr_f(x_65)_b=0: x_65>1 = 0 -> - x_65 + f(x_65) = 0
 constr_f(x_66)_b=1: x_66>1 = 1 -> f(x_66) = 0
 constr_f(x_66)_b=0: x_66>1 = 0 -> - x_66 + f(x_66) = 0
 constr_f(x_67)_b=1: x_67>1 = 1 -> f(x_67) = 0
 constr_f(x_67)_b=0: x_67>1 = 0 -> - x_67 + f(x_67) = 0
 constr_f(x_68)_b=1: x_68>1 = 1 -> f(x_68) = 0
 constr_f(x_68)_b=0: x_68>1 = 0 -> - x_68 + f(x_68) = 0
 constr_f(x_69)_b=1: x_69>1 = 1 -> f(x_69) = 0
 constr_f(x_69)_b=0: x_69>1 = 0 -> - x_69 + f(x_69) = 0
 constr_f(x_70)_b=1: x_70>1 = 1 -> f(x_70) = 0
 constr_f(x_70)_b=0: x_70>1 = 0 -> - x_70 + f(x_70) = 0
 constr_f(x_71)_b=1: x_71>1 = 1 -> f(x_71) = 0
 constr_f(x_71)_b=0: x_71>1 = 0 -> - x_71 + f(x_71) = 0
 constr_f(x_72)_b=1: x_72>1 = 1 -> f(x_72) = 0
 constr_f(x_72)_b=0: x_72>1 = 0 -> - x_72 + f(x_72) = 0
 constr_f(x_73)_b=1: x_73>1 = 1 -> f(x_73) = 0
 constr_f(x_73)_b=0: x_73>1 = 0 -> - x_73 + f(x_73) = 0
 constr_f(x_74)_b=1: x_74>1 = 1 -> f(x_74) = 0
 constr_f(x_74)_b=0: x_74>1 = 0 -> - x_74 + f(x_74) = 0
 constr_f(x_75)_b=1: x_75>1 = 1 -> f(x_75) = 0
 constr_f(x_75)_b=0: x_75>1 = 0 -> - x_75 + f(x_75) = 0
 constr_f(x_76)_b=1: x_76>1 = 1 -> f(x_76) = 0
 constr_f(x_76)_b=0: x_76>1 = 0 -> - x_76 + f(x_76) = 0
 constr_f(x_77)_b=1: x_77>1 = 1 -> f(x_77) = 0
 constr_f(x_77)_b=0: x_77>1 = 0 -> - x_77 + f(x_77) = 0
 constr_f(x_78)_b=1: x_78>1 = 1 -> f(x_78) = 0
 constr_f(x_78)_b=0: x_78>1 = 0 -> - x_78 + f(x_78) = 0
 constr_f(x_79)_b=1: x_79>1 = 1 -> f(x_79) = 0
 constr_f(x_79)_b=0: x_79>1 = 0 -> - x_79 + f(x_79) = 0
 constr_f(x_80)_b=1: x_80>1 = 1 -> f(x_80) = 0
 constr_f(x_80)_b=0: x_80>1 = 0 -> - x_80 + f(x_80) = 0
 constr_f(x_81)_b=1: x_81>1 = 1 -> f(x_81) = 0
 constr_f(x_81)_b=0: x_81>1 = 0 -> - x_81 + f(x_81) = 0
 constr_f(x_82)_b=1: x_82>1 = 1 -> f(x_82) = 0
 constr_f(x_82)_b=0: x_82>1 = 0 -> - x_82 + f(x_82) = 0
 constr_f(x_83)_b=1: x_83>1 = 1 -> f(x_83) = 0
 constr_f(x_83)_b=0: x_83>1 = 0 -> - x_83 + f(x_83) = 0
 constr_f(x_84)_b=1: x_84>1 = 1 -> f(x_84) = 0
 constr_f(x_84)_b=0: x_84>1 = 0 -> - x_84 + f(x_84) = 0
 constr_f(x_85)_b=1: x_85>1 = 1 -> f(x_85) = 0
 constr_f(x_85)_b=0: x_85>1 = 0 -> - x_85 + f(x_85) = 0
 constr_f(x_86)_b=1: x_86>1 = 1 -> f(x_86) = 0
 constr_f(x_86)_b=0: x_86>1 = 0 -> - x_86 + f(x_86) = 0
 constr_f(x_87)_b=1: x_87>1 = 1 -> f(x_87) = 0
 constr_f(x_87)_b=0: x_87>1 = 0 -> - x_87 + f(x_87) = 0
 constr_f(x_88)_b=1: x_88>1 = 1 -> f(x_88) = 0
 constr_f(x_88)_b=0: x_88>1 = 0 -> - x_88 + f(x_88) = 0
 constr_f(x_89)_b=1: x_89>1 = 1 -> f(x_89) = 0
 constr_f(x_89)_b=0: x_89>1 = 0 -> - x_89 + f(x_89) = 0
 constr_f(x_90)_b=1: x_90>1 = 1 -> f(x_90) = 0
 constr_f(x_90)_b=0: x_90>1 = 0 -> - x_90 + f(x_90) = 0
 constr_f(x_91)_b=1: x_91>1 = 1 -> f(x_91) = 0
 constr_f(x_91)_b=0: x_91>1 = 0 -> - x_91 + f(x_91) = 0
 constr_f(x_92)_b=1: x_92>1 = 1 -> f(x_92) = 0
 constr_f(x_92)_b=0: x_92>1 = 0 -> - x_92 + f(x_92) = 0
 constr_f(x_93)_b=1: x_93>1 = 1 -> f(x_93) = 0
 constr_f(x_93)_b=0: x_93>1 = 0 -> - x_93 + f(x_93) = 0
 constr_f(x_94)_b=1: x_94>1 = 1 -> f(x_94) = 0
 constr_f(x_94)_b=0: x_94>1 = 0 -> - x_94 + f(x_94) = 0
 constr_f(x_95)_b=1: x_95>1 = 1 -> f(x_95) = 0
 constr_f(x_95)_b=0: x_95>1 = 0 -> - x_95 + f(x_95) = 0
 constr_f(x_96)_b=1: x_96>1 = 1 -> f(x_96) = 0
 constr_f(x_96)_b=0: x_96>1 = 0 -> - x_96 + f(x_96) = 0
 constr_f(x_97)_b=1: x_97>1 = 1 -> f(x_97) = 0
 constr_f(x_97)_b=0: x_97>1 = 0 -> - x_97 + f(x_97) = 0
 constr_f(x_98)_b=1: x_98>1 = 1 -> f(x_98) = 0
 constr_f(x_98)_b=0: x_98>1 = 0 -> - x_98 + f(x_98) = 0
 constr_f(x_99)_b=1: x_99>1 = 1 -> f(x_99) = 0
 constr_f(x_99)_b=0: x_99>1 = 0 -> - x_99 + f(x_99) = 0
Bounds
 x_0 <= 5
 x_1 <= 5
 x_2 <= 5
 x_3 <= 5
 x_4 <= 5
 x_5 <= 5
 x_6 <= 5
 x_7 <= 5
 x_8 <= 5
 x_9 <= 5
 x_10 <= 5
 x_11 <= 5
 x_12 <= 5
 x_13 <= 5
 x_14 <= 5
 x_15 <= 5
 x_16 <= 5
 x_17 <= 5
 x_18 <= 5
 x_19 <= 5
 x_20 <= 5
 x_21 <= 5
 x_22 <= 5
 x_23 <= 5
 x_24 <= 5
 x_25 <= 5
 x_26 <= 5
 x_27 <= 5
 x_28 <= 5
 x_29 <= 5
 x_30 <= 5
 x_31 <= 5
 x_32 <= 5
 x_33 <= 5
 x_34 <= 5
 x_35 <= 5
 x_36 <= 5
 x_37 <= 5
 x_38 <= 5
 x_39 <= 5
 x_40 <= 5
 x_41 <= 5
 x_42 <= 5
 x_43 <= 5
 x_44 <= 5
 x_45 <= 5
 x_46 <= 5
 x_47 <= 5
 x_48 <= 5
 x_49 <= 5
 x_50 <= 5
 x_51 <= 5
 x_52 <= 5
 x_53 <= 5
 x_54 <= 5
 x_55 <= 5
 x_56 <= 5
 x_57 <= 5
 x_58 <= 5
 x_59 <= 5
 x_60 <= 5
 x_61 <= 5
 x_62 <= 5
 x_63 <= 5
 x_64 <= 5
 x_65 <= 5
 x_66 <= 5
 x_67 <= 5
 x_68 <= 5
 x_69 <= 5
 x_70 <= 5
 x_71 <= 5
 x_72 <= 5
 x_73 <= 5
 x_74 <= 5
 x_75 <= 5
 x_76 <= 5
 x_77 <= 5
 x_78 <= 5
 x_79 <= 5
 x_80 <= 5
 x_81 <= 5
 x_82 <= 5
 x_83 <= 5
 x_84 <= 5
 x_85 <= 5
 x_86 <= 5
 x_87 <= 5
 x_88 <= 5
 x_89 <= 5
 x_90 <= 5
 x_91 <= 5
 x_92 <= 5
 x_93 <= 5
 x_94 <= 5
 x_95 <= 5
 x_96 <= 5
 x_97 <= 5
 x_98 <= 5
 x_99 <= 5
Binaries
 x_0>1 x_1>1 x_2>1 x_3>1 x_4>1 x_5>1 x_6>1 x_7>1 x_8>1 x_9>1 x_10>1 x_11>1
 x_12>1 x_13>1 x_14>1 x_15>1 x_16>1 x_17>1 x_18>1 x_19>1 x_20>1 x_21>1
 x_22>1 x_23>1 x_24>1 x_25>1 x_26>1 x_27>1 x_28>1 x_29>1 x_30>1 x_31>1
 x_32>1 x_33>1 x_34>1 x_35>1 x_36>1 x_37>1 x_38>1 x_39>1 x_40>1 x_41>1
 x_42>1 x_43>1 x_44>1 x_45>1 x_46>1 x_47>1 x_48>1 x_49>1 x_50>1 x_51>1
 x_52>1 x_53>1 x_54>1 x_55>1 x_56>1 x_57>1 x_58>1 x_59>1 x_60>1 x_61>1
 x_62>1 x_63>1 x_64>1 x_65>1 x_66>1 x_67>1 x_68>1 x_69>1 x_70>1 x_71>1
 x_72>1 x_73>1 x_74>1 x_75>1 x_76>1 x_77>1 x_78>1 x_79>1 x_80>1 x_81>1
 x_82>1 x_83>1 x_84>1 x_85>1 x_86>1 x_87>1 x_88>1 x_89>1 x_90>1 x_91>1
 x_92>1 x_93>1 x_94>1 x_95>1 x_96>1 x_97>1 x_98>1 x_99>1
Generals
 x_0 x_1 x_2 x_3 x_4 x_5 x_6 x_7 x_8 x_9 x_10 x_11 x_12 x_13 x_14 x_15 x_16
 x_17 x_18 x_19 x_20 x_21 x_22 x_23 x_24 x_25 x_26 x_27 x_28 x_29 x_30 x_31
 x_32 x_33 x_34 x_35 x_36 x_37 x_38 x_39 x_40 x_41 x_42 x_43 x_44 x_45 x_46
 x_47 x_48 x_49 x_50 x_51 x_52 x_53 x_54 x_55 x_56 x_57 x_58 x_59 x_60 x_61
 x_62 x_63 x_64 x_65 x_66 x_67 x_68 x_69 x_70 x_71 x_72 x_73 x_74 x_75 x_76
 x_77 x_78 x_79 x_80 x_81 x_82 x_83 x_84 x_85 x_86 x_87 x_88 x_89 x_90 x_91
 x_92 x_93 x_94 x_95 x_96 x_97 x_98 x_99
End
